CPXPARAM_Emphasis_MIP#P8#1#CPXPARAM_MIP_Limits_ProbeTime#P28#1#0.513719#0.307732
CPXPARAM_Emphasis_MIP#P8#1#CPXPARAM_MIP_Strategy_Probe#P42#0#1.669370#0.999998
CPXPARAM_Emphasis_MIP#P8#1#CPXPARAM_MIP_Strategy_Probe#P42#1#1.669373#1.000000
CPXPARAM_Emphasis_MIP#P8#3#CPXPARAM_MIP_Strategy_Probe#P42#0#1.669288#0.999949
CPXPARAM_Emphasis_MIP#P8#3#CPXPARAM_MIP_Strategy_Probe#P42#1#1.669298#0.999955
